&CONTROL
          calculation = 'nscf'
          restart_mode= 'from_scratch',
                prefix= 'cnt42',
           pseudo_dir = './'
                outdir='./tmp/'
       	     verbosity='high'
	     wf_collect=.true.
/
 &SYSTEM
                       ibrav = 6,
                   celldm(1) = 23.0
                   celldm(3) = .9195571662
                         nat = 56,
                        ntyp = 1,
                     ecutwfc = 50
             force_symmorphic=.true.
	               nbnd = 130
                    nosym=.true.
 /
 &ELECTRONS
 diago_thr_init= 1.0d-6
 /
ATOMIC_SPECIES
    C   1    C.pz-vbc.UPF
ATOMIC_POSITIONS (angstrom)
C        2.099757     0.000000    -5.650205
  C        2.099757    -0.001395    -1.886229
  C        2.048385     0.461625    -3.228695
  C        1.307266     1.643178    -3.500569
  C        0.912779     1.890982    -4.843035
  C       -0.473362     2.045705    -5.114909
  C        2.048691     0.460264     0.535280
  C        1.896783     0.900662    -0.807186
  C        0.914035     1.890375    -1.079060
  C        0.474721     2.045390    -2.421525
  C       -0.911523     1.891588    -2.693399
  C       -1.306174     1.644047    -4.035865
  C       -2.048078     0.462986    -4.307739
  C       -2.099757     0.000000    -5.650205
  C        1.897381     0.899402     2.956789
  C        1.652370     1.295629     1.614324
  C        0.476080     2.045074     1.342450
  C        0.013434     2.099714    -0.000016
  C       -1.305081     1.644914    -0.271890
  C       -1.635656     1.316666    -1.614356
  C       -2.099757     0.001395    -1.886229
  C       -2.048385    -0.461625    -3.228695
  C       -1.307266    -1.643178    -3.500569
  C       -0.912779    -1.890982    -4.843035
  C        0.473362    -2.045705    -5.114909
  C        1.653230     1.294531     5.378299
  C        1.327103     1.627199     4.035833
  C        0.014829     2.099705     3.763959
  C       -0.448510     2.051297     2.421493
  C       -1.634781     1.317752     2.149620
  C       -1.885104     0.924859     0.807154
  C       -2.048691    -0.460264     0.535280
  C       -1.896783    -0.900662    -0.807186
  C       -0.914035    -1.890375    -1.079060
  C       -0.474721    -2.045390    -2.421525
  C        0.911523    -1.891588    -2.693399
  C        1.306174    -1.644047    -4.035865
  C        2.048078    -0.462986    -4.307739
  C       -0.888509     1.902507     4.843003
  C       -1.884489     0.926111     4.571129
  C       -2.042311     0.487797     3.228663
  C       -1.897381    -0.899402     2.956789
  C       -1.652370    -1.295629     1.614324
  C       -0.476080    -2.045074     1.342450
  C       -0.013434    -2.099714    -0.000016
  C        1.305081    -1.644914    -0.271890
  C        1.635656    -1.316666    -1.614356
  C       -1.653230    -1.294531     5.378299
  C       -1.327103    -1.627199     4.035833
  C       -0.014829    -2.099705     3.763959
  C        0.448510    -2.051297     2.421493
  C        1.634781    -1.317752     2.149620
  C        1.885104    -0.924859     0.807154
  C        0.888509    -1.902507     4.843003
  C        1.884489    -0.926111     4.571129
  C        2.042311    -0.487797     3.228663

K_POINTS {crystal}
100
         0.0000000    0.0000000    0.0000000    1.0000000
         0.0000000    0.0000000    0.0100000    1.0000000
         0.0000000    0.0000000    0.0200000    1.0000000
         0.0000000    0.0000000    0.0300000    1.0000000
         0.0000000    0.0000000    0.0400000    1.0000000
         0.0000000    0.0000000    0.0500000    1.0000000
         0.0000000    0.0000000    0.0600000    1.0000000
         0.0000000    0.0000000    0.0700000    1.0000000
         0.0000000    0.0000000    0.0800000    1.0000000
         0.0000000    0.0000000    0.0900000    1.0000000
         0.0000000    0.0000000    0.1000000    1.0000000
         0.0000000    0.0000000    0.1100000    1.0000000
         0.0000000    0.0000000    0.1200000    1.0000000
         0.0000000    0.0000000    0.1300000    1.0000000
         0.0000000    0.0000000    0.1400000    1.0000000
         0.0000000    0.0000000    0.1500000    1.0000000
         0.0000000    0.0000000    0.1600000    1.0000000
         0.0000000    0.0000000    0.1700000    1.0000000
         0.0000000    0.0000000    0.1800000    1.0000000
         0.0000000    0.0000000    0.1900000    1.0000000
         0.0000000    0.0000000    0.2000000    1.0000000
         0.0000000    0.0000000    0.2100000    1.0000000
         0.0000000    0.0000000    0.2200000    1.0000000
         0.0000000    0.0000000    0.2300000    1.0000000
         0.0000000    0.0000000    0.2400000    1.0000000
         0.0000000    0.0000000    0.2500000    1.0000000
         0.0000000    0.0000000    0.2600000    1.0000000
         0.0000000    0.0000000    0.2700000    1.0000000
         0.0000000    0.0000000    0.2800000    1.0000000
         0.0000000    0.0000000    0.2900000    1.0000000
         0.0000000    0.0000000    0.3000000    1.0000000
         0.0000000    0.0000000    0.3100000    1.0000000
         0.0000000    0.0000000    0.3200000    1.0000000
         0.0000000    0.0000000    0.3300000    1.0000000
         0.0000000    0.0000000    0.3400000    1.0000000
         0.0000000    0.0000000    0.3500000    1.0000000
         0.0000000    0.0000000    0.3600000    1.0000000
         0.0000000    0.0000000    0.3700000    1.0000000
         0.0000000    0.0000000    0.3800000    1.0000000
         0.0000000    0.0000000    0.3900000    1.0000000
         0.0000000    0.0000000    0.4000000    1.0000000
         0.0000000    0.0000000    0.4100000    1.0000000
         0.0000000    0.0000000    0.4200000    1.0000000
         0.0000000    0.0000000    0.4300000    1.0000000
         0.0000000    0.0000000    0.4400000    1.0000000
         0.0000000    0.0000000    0.4500000    1.0000000
         0.0000000    0.0000000    0.4600000    1.0000000
         0.0000000    0.0000000    0.4700000    1.0000000
         0.0000000    0.0000000    0.4800000    1.0000000
         0.0000000    0.0000000    0.4900000    1.0000000
         0.0000000    0.0000000    0.5000000    1.0000000
         0.0000000    0.0000000    0.5100000    1.0000000
         0.0000000    0.0000000    0.5200000    1.0000000
         0.0000000    0.0000000    0.5300000    1.0000000
         0.0000000    0.0000000    0.5400000    1.0000000
         0.0000000    0.0000000    0.5500000    1.0000000
         0.0000000    0.0000000    0.5600000    1.0000000
         0.0000000    0.0000000    0.5700000    1.0000000
         0.0000000    0.0000000    0.5800000    1.0000000
         0.0000000    0.0000000    0.5900000    1.0000000
         0.0000000    0.0000000    0.6000000    1.0000000
         0.0000000    0.0000000    0.6100000    1.0000000
         0.0000000    0.0000000    0.6200000    1.0000000
         0.0000000    0.0000000    0.6300000    1.0000000
         0.0000000    0.0000000    0.6400000    1.0000000
         0.0000000    0.0000000    0.6500000    1.0000000
         0.0000000    0.0000000    0.6600000    1.0000000
         0.0000000    0.0000000    0.6700000    1.0000000
         0.0000000    0.0000000    0.6800000    1.0000000
         0.0000000    0.0000000    0.6900000    1.0000000
         0.0000000    0.0000000    0.7000000    1.0000000
         0.0000000    0.0000000    0.7100000    1.0000000
         0.0000000    0.0000000    0.7200000    1.0000000
         0.0000000    0.0000000    0.7300000    1.0000000
         0.0000000    0.0000000    0.7400000    1.0000000
         0.0000000    0.0000000    0.7500000    1.0000000
         0.0000000    0.0000000    0.7600000    1.0000000
         0.0000000    0.0000000    0.7700000    1.0000000
         0.0000000    0.0000000    0.7800000    1.0000000
         0.0000000    0.0000000    0.7900000    1.0000000
         0.0000000    0.0000000    0.8000000    1.0000000
         0.0000000    0.0000000    0.8100000    1.0000000
         0.0000000    0.0000000    0.8200000    1.0000000
         0.0000000    0.0000000    0.8300000    1.0000000
         0.0000000    0.0000000    0.8400000    1.0000000
         0.0000000    0.0000000    0.8500000    1.0000000
         0.0000000    0.0000000    0.8600000    1.0000000
         0.0000000    0.0000000    0.8700000    1.0000000
         0.0000000    0.0000000    0.8800000    1.0000000
         0.0000000    0.0000000    0.8900000    1.0000000
         0.0000000    0.0000000    0.9000000    1.0000000
         0.0000000    0.0000000    0.9100000    1.0000000
         0.0000000    0.0000000    0.9200000    1.0000000
         0.0000000    0.0000000    0.9300000    1.0000000
         0.0000000    0.0000000    0.9400000    1.0000000
         0.0000000    0.0000000    0.9500000    1.0000000
         0.0000000    0.0000000    0.9600000    1.0000000
         0.0000000    0.0000000    0.9700000    1.0000000
         0.0000000    0.0000000    0.9800000    1.0000000
         0.0000000    0.0000000    0.9900000    1.0000000
