&CONTROL
          calculation = 'scf'
          restart_mode= 'from_scratch',
                prefix= 'cnt42',
           pseudo_dir = './'
                outdir='./tmp/'
       	     verbosity='high'
	     wf_collect=.true.
/
 &SYSTEM
                       ibrav = 6,
                   celldm(1) = 23.0
                   celldm(3) = .9195571662
                         nat = 56,
                        ntyp = 1,
                     ecutwfc = 50
 /
 &ELECTRONS
    diagonalization='david'
    mixing_mode = 'plain'
    mixing_beta = 0.7
    conv_thr =  1.0d-7
 /
ATOMIC_SPECIES
    C   1    C.pz-vbc.UPF
ATOMIC_POSITIONS (angstrom)
C        2.099757     0.000000    -5.650205
  C        2.099757    -0.001395    -1.886229
  C        2.048385     0.461625    -3.228695
  C        1.307266     1.643178    -3.500569
  C        0.912779     1.890982    -4.843035
  C       -0.473362     2.045705    -5.114909
  C        2.048691     0.460264     0.535280
  C        1.896783     0.900662    -0.807186
  C        0.914035     1.890375    -1.079060
  C        0.474721     2.045390    -2.421525
  C       -0.911523     1.891588    -2.693399
  C       -1.306174     1.644047    -4.035865
  C       -2.048078     0.462986    -4.307739
  C       -2.099757     0.000000    -5.650205
  C        1.897381     0.899402     2.956789
  C        1.652370     1.295629     1.614324
  C        0.476080     2.045074     1.342450
  C        0.013434     2.099714    -0.000016
  C       -1.305081     1.644914    -0.271890
  C       -1.635656     1.316666    -1.614356
  C       -2.099757     0.001395    -1.886229
  C       -2.048385    -0.461625    -3.228695
  C       -1.307266    -1.643178    -3.500569
  C       -0.912779    -1.890982    -4.843035
  C        0.473362    -2.045705    -5.114909
  C        1.653230     1.294531     5.378299
  C        1.327103     1.627199     4.035833
  C        0.014829     2.099705     3.763959
  C       -0.448510     2.051297     2.421493
  C       -1.634781     1.317752     2.149620
  C       -1.885104     0.924859     0.807154
  C       -2.048691    -0.460264     0.535280
  C       -1.896783    -0.900662    -0.807186
  C       -0.914035    -1.890375    -1.079060
  C       -0.474721    -2.045390    -2.421525
  C        0.911523    -1.891588    -2.693399
  C        1.306174    -1.644047    -4.035865
  C        2.048078    -0.462986    -4.307739
  C       -0.888509     1.902507     4.843003
  C       -1.884489     0.926111     4.571129
  C       -2.042311     0.487797     3.228663
  C       -1.897381    -0.899402     2.956789
  C       -1.652370    -1.295629     1.614324
  C       -0.476080    -2.045074     1.342450
  C       -0.013434    -2.099714    -0.000016
  C        1.305081    -1.644914    -0.271890
  C        1.635656    -1.316666    -1.614356
  C       -1.653230    -1.294531     5.378299
  C       -1.327103    -1.627199     4.035833
  C       -0.014829    -2.099705     3.763959
  C        0.448510    -2.051297     2.421493
  C        1.634781    -1.317752     2.149620
  C        1.885104    -0.924859     0.807154
  C        0.888509    -1.902507     4.843003
  C        1.884489    -0.926111     4.571129
  C        2.042311    -0.487797     3.228663
K_POINTS automatic
1 1 23 0 0 0
