&BANDS
 outdir='./tmp/',
 prefix='cnt42',
 filband='cnt42.bands',
/
